<number of tasks>
58

<cycle time>
62

<task times>
1 10
2 53
3 41
4 36
5 35
6 17
7 34
8 23
9 14
10 52
11 33
12 34
13 12
14 52
15 12
16 33
17 44
18 7
19 15
20 13
21 29
22 37
23 43
24 23
25 24
26 9
27 16
28 12
29 26
30 22
31 51
32 47
33 34
34 23
35 12
36 52
37 12
38 33
39 44
40 7
41 15
42 13
43 29
44 37
45 43
46 23
47 24
48 9
49 16
50 12
51 26
52 12
53 52
54 12
55 33
56 44
57 7
58 15

<precedence relations>
1,9
2,25
3,21
3,22
4,10
5,36
6,23
6,24
7,43
8,44
9,11
11,13
11,14
11,15
12,17
13,17
14,17
15,17
16,18
17,20
18,19
19,23
20,21
20,25
21,26
21,44
22,27
23,31
24,31
25,38
26,29
27,30
28,32
28,33
29,31
30,34
31,36
32,45
33,35
34,36
35,43
36,37
36,38
37,39
37,40
37,41
38,52
39,43
40,43
41,42
42,43
43,45
44,45
45,46
45,48
45,49
46,47
46,50
47,51
48,55
49,58
50,58
51,52
52,53
53,54
54,55
54,56
55,57
56,57
57,58

<setup times forward>
1,2:2
1,3:3
1,4:5
1,5:12
1,6:3
1,7:3
1,8:5
1,9:7
1,12:7
1,16:9
1,18:2
1,19:7
1,22:11
1,23:1
1,24:11
1,27:6
1,28:7
1,30:3
1,32:7
1,33:6
1,34:11
1,35:6
2,1:2
2,3:1
2,4:3
2,5:10
2,6:1
2,7:1
2,8:3
2,9:5
2,10:2
2,11:2
2,12:5
2,13:2
2,14:6
2,15:2
2,16:7
2,17:3
2,19:5
2,20:3
2,21:7
2,22:9
2,23:1
2,24:9
2,25:2
2,26:1
2,27:4
2,28:5
2,29:10
2,30:1
2,31:2
2,32:5
2,33:4
2,34:9
2,35:4
2,36:4
2,37:2
2,39:1
2,40:2
2,41:2
2,42:1
2,43:1
2,44:9
2,45:7
2,47:4
2,48:5
2,51:4
3,1:3
3,2:1
3,4:2
3,5:9
3,8:2
3,9:4
3,10:3
3,11:1
3,12:4
3,13:1
3,14:5
3,15:1
3,16:6
3,17:2
3,18:1
3,19:4
3,20:2
3,21:6
3,22:8
3,23:2
3,24:8
3,25:1
3,28:4
3,32:4
3,33:3
3,35:3
4,1:5
4,2:3
4,3:2
4,5:7
4,6:2
4,7:2
4,9:2
4,10:5
4,11:1
4,12:2
4,13:1
4,14:3
4,15:1
4,16:4
4,18:3
4,19:2
4,21:4
4,22:6
4,23:4
4,24:6
4,25:1
4,26:4
4,27:1
4,28:2
4,29:7
4,30:2
4,31:5
4,32:2
4,33:1
4,34:6
4,35:1
4,36:1
4,37:1
4,38:4
4,39:4
4,40:1
4,41:1
4,42:4
4,43:4
4,44:6
4,45:4
4,46:3
4,47:1
4,48:2
4,49:3
4,50:3
4,51:1
4,52:1
4,53:2
4,54:5
4,55:7
4,56:5
4,57:7
4,58:7
5,1:12
5,2:10
5,3:9
5,4:7
5,6:9
5,7:9
5,8:7
5,9:5
5,10:12
5,11:8
5,12:5
5,13:8
5,14:4
5,15:8
5,16:3
5,17:7
5,18:10
5,19:5
5,20:7
5,21:3
5,22:1
5,23:11
5,24:1
5,25:8
5,26:11
5,27:6
5,28:5
5,30:9
5,31:12
5,32:5
5,33:6
5,34:1
5,35:6
5,36:6
5,44:1
6,1:3
6,2:1
6,4:2
6,5:9
6,8:2
6,9:4
6,10:3
6,11:1
6,12:4
6,13:1
6,14:5
6,15:1
6,16:6
6,17:2
6,18:1
6,19:4
6,20:2
6,21:6
6,22:8
6,23:2
6,24:8
6,25:1
6,26:2
6,27:3
6,28:4
6,29:9
6,32:4
6,33:3
6,34:8
6,35:3
6,44:8
7,1:3
7,2:1
7,4:2
7,5:9
7,8:2
7,9:4
7,10:3
7,11:1
7,12:4
7,13:1
7,14:5
7,15:1
7,16:6
7,17:2
7,18:1
7,19:4
7,20:2
7,21:6
7,22:8
7,23:2
7,24:8
7,25:1
7,26:2
7,27:3
7,28:4
7,29:9
7,31:3
7,32:4
7,33:3
7,34:8
7,35:3
7,36:3
7,37:1
7,38:2
7,39:2
7,40:1
7,41:1
7,42:2
7,43:2
7,44:8
8,1:5
8,2:3
8,3:2
8,5:7
8,6:2
8,7:2
8,9:2
8,10:5
8,11:1
8,12:2
8,13:1
8,14:3
8,15:1
8,16:4
8,18:3
8,19:2
8,21:4
8,22:6
8,23:4
8,24:6
8,25:1
8,26:4
8,27:1
8,28:2
8,29:7
8,30:2
8,31:5
8,32:2
8,33:1
8,34:6
8,35:1
8,36:1
8,37:1
8,38:4
8,39:4
8,40:1
8,41:1
8,42:4
8,43:4
8,44:6
9,2:5
9,3:4
9,4:2
9,5:5
9,6:4
9,7:4
9,8:2
9,10:7
9,11:3
9,16:2
9,18:5
9,22:4
9,23:6
9,24:4
9,27:1
9,30:4
9,33:1
9,34:4
9,35:1
10,2:2
10,3:3
10,5:12
10,6:3
10,7:3
10,8:5
10,9:7
10,11:4
10,12:7
10,13:4
10,14:8
10,15:4
10,16:9
10,17:5
10,18:2
10,19:7
10,20:5
10,21:9
10,22:11
10,23:1
10,24:11
10,25:4
10,26:1
10,27:6
10,28:7
10,29:12
10,30:3
10,32:7
10,33:6
10,34:11
10,35:6
10,36:6
10,37:4
10,38:1
10,39:1
10,40:4
10,41:4
10,42:1
10,43:1
10,44:11
10,45:9
10,46:2
10,47:6
10,48:7
10,49:2
10,50:2
10,51:6
10,52:6
10,53:7
10,54:10
10,55:12
10,56:10
10,57:12
10,58:12
11,2:2
11,3:1
11,4:1
11,5:8
11,6:1
11,7:1
11,8:1
11,10:4
11,12:3
11,14:4
11,16:5
11,18:2
11,19:3
11,22:7
11,23:3
11,24:7
11,27:2
11,28:3
11,30:1
11,32:3
11,33:2
11,34:7
11,35:2
12,1:7
12,2:5
12,3:4
12,4:2
12,5:5
12,6:4
12,7:4
12,8:2
12,10:7
12,11:3
12,13:3
12,14:1
12,15:3
12,16:2
12,17:2
12,18:5
12,22:4
12,23:6
12,24:4
12,27:1
12,30:4
12,33:1
12,34:4
12,35:1
13,2:2
13,3:1
13,4:1
13,5:8
13,6:1
13,7:1
13,8:1
13,10:4
13,12:3
13,14:4
13,16:5
13,17:1
13,18:2
13,19:3
13,22:7
13,23:3
13,24:7
13,27:2
13,28:3
13,30:1
13,32:3
13,33:2
13,34:7
13,35:2
14,2:6
14,3:5
14,4:3
14,5:4
14,6:5
14,7:5
14,8:3
14,10:8
14,12:1
14,13:4
14,15:4
14,16:1
14,17:3
14,18:6
14,19:1
14,22:3
14,23:7
14,24:3
14,27:2
14,28:1
14,30:5
14,32:1
14,33:2
14,34:3
14,35:2
15,2:2
15,3:1
15,4:1
15,5:8
15,6:1
15,7:1
15,8:1
15,10:4
15,12:3
15,14:4
15,16:5
15,17:1
15,18:2
15,19:3
15,22:7
15,23:3
15,24:7
15,27:2
15,28:3
15,30:1
15,32:3
15,33:2
15,34:7
15,35:2
16,1:9
16,2:7
16,3:6
16,4:4
16,5:3
16,6:6
16,7:6
16,8:4
16,9:2
16,10:9
16,11:5
16,12:2
16,13:5
16,14:1
16,15:5
16,17:4
16,18:7
16,20:4
16,22:2
16,24:2
16,25:5
16,26:8
16,27:3
16,28:2
16,29:3
16,30:6
16,32:2
16,33:3
16,34:2
16,35:3
16,44:2
17,2:3
17,3:2
17,5:7
17,6:2
17,7:2
17,10:5
17,16:4
17,18:3
17,19:2
17,22:6
17,23:4
17,24:6
17,27:1
17,28:2
17,30:2
17,32:2
17,33:1
17,34:6
17,35:1
18,1:2
18,3:1
18,4:3
18,5:10
18,6:1
18,7:1
18,8:3
18,9:5
18,10:2
18,11:2
18,12:5
18,13:2
18,14:6
18,15:2
18,17:3
18,19:5
18,20:3
18,21:7
18,22:9
18,24:9
18,25:2
18,26:1
18,27:4
18,28:5
18,29:10
18,30:1
18,32:5
18,33:4
18,34:9
18,35:4
18,44:9
19,1:7
19,2:5
19,3:4
19,4:2
19,5:5
19,6:4
19,7:4
19,8:2
19,10:7
19,11:3
19,13:3
19,14:1
19,15:3
19,17:2
19,20:2
19,21:2
19,22:4
19,23:6
19,24:4
19,25:3
19,26:6
19,27:1
19,29:5
19,30:4
19,33:1
19,34:4
19,35:1
19,44:4
20,2:3
20,3:2
20,5:7
20,6:2
20,7:2
20,10:5
20,16:4
20,18:3
20,19:2
20,21:4
20,22:6
20,23:4
20,24:6
20,25:1
20,27:1
20,28:2
20,30:2
20,32:2
20,33:1
20,34:6
20,35:1
21,2:7
21,4:4
21,5:3
21,6:6
21,7:6
21,8:4
21,10:9
21,18:7
21,19:2
21,22:2
21,23:8
21,24:2
21,25:5
21,26:8
21,27:3
21,28:2
21,30:6
21,32:2
21,33:3
21,34:2
21,35:3
21,44:2
22,1:11
22,2:9
22,4:6
22,5:1
22,6:8
22,7:8
22,8:6
22,9:4
22,10:11
22,11:7
22,12:4
22,13:7
22,14:3
22,15:7
22,16:2
22,17:6
22,18:9
22,19:4
22,20:6
22,21:2
22,23:10
22,25:7
22,26:10
22,27:5
22,28:4
22,29:1
22,31:11
22,32:4
22,33:5
22,35:5
23,1:1
23,2:1
23,3:2
23,4:4
23,5:11
23,7:2
23,8:4
23,9:6
23,10:1
23,11:3
23,12:6
23,13:3
23,14:7
23,15:3
23,17:4
23,20:4
23,21:8
23,22:10
23,24:10
23,25:3
23,27:5
23,28:6
23,29:11
23,30:2
23,31:1
23,32:6
23,33:5
23,34:10
23,35:5
23,44:10
24,1:11
24,2:9
24,3:8
24,4:6
24,5:1
24,7:8
24,8:6
24,9:4
24,10:11
24,11:7
24,12:4
24,13:7
24,14:3
24,15:7
24,16:2
24,17:6
24,18:9
24,19:4
24,20:6
24,21:2
24,23:10
24,25:7
24,26:10
24,27:5
24,28:4
24,29:1
24,30:8
24,31:11
24,32:4
24,33:5
24,35:5
25,3:1
25,4:1
25,5:8
25,6:1
25,7:1
25,8:1
25,10:4
25,16:5
25,18:2
25,19:3
25,21:5
25,22:7
25,23:3
25,24:7
25,26:3
25,27:2
25,28:3
25,29:8
25,30:1
25,31:4
25,32:3
25,33:2
25,34:7
25,35:2
25,36:2
25,38:3
25,39:3
25,42:3
25,43:3
25,44:7
25,45:5
25,46:2
25,47:2
25,48:3
25,49:2
25,50:2
25,51:2
26,2:1
26,4:4
26,5:11
26,6:2
26,7:2
26,8:4
26,10:1
26,16:8
26,18:1
26,19:6
26,22:10
26,24:10
26,25:3
26,27:5
26,28:6
26,29:11
26,30:2
26,32:6
26,33:5
26,34:10
26,35:5
26,44:10
27,1:6
27,2:4
27,4:1
27,5:6
27,6:3
27,7:3
27,8:1
27,9:1
27,10:6
27,11:2
27,12:1
27,13:2
27,14:2
27,15:2
27,16:3
27,17:1
27,18:4
27,19:1
27,20:1
27,21:3
27,23:5
27,24:5
27,25:2
27,26:5
27,28:1
27,29:6
27,30:3
27,31:6
27,32:1
27,44:5
28,1:7
28,2:5
28,3:4
28,4:2
28,5:5
28,6:4
28,7:4
28,8:2
28,10:7
28,11:3
28,13:3
28,14:1
28,15:3
28,16:2
28,17:2
28,18:5
28,20:2
28,21:2
28,22:4
28,23:6
28,24:4
28,25:3
28,26:6
28,27:1
28,29:5
28,30:4
28,31:7
28,33:1
28,34:4
28,36:1
28,37:3
28,38:6
28,39:6
28,40:3
28,41:3
28,42:6
28,44:4
29,2:10
29,4:7
29,6:9
29,7:9
29,8:7
29,10:12
29,16:3
29,18:10
29,19:5
29,22:1
29,23:11
29,24:1
29,25:8
29,27:6
29,28:5
29,30:9
29,31:12
29,32:5
29,33:6
29,34:1
29,35:6
29,44:1
30,1:3
30,2:1
30,4:2
30,5:9
30,8:2
30,9:4
30,10:3
30,11:1
30,12:4
30,13:1
30,14:5
30,15:1
30,16:6
30,17:2
30,18:1
30,19:4
30,20:2
30,21:6
30,23:2
30,24:8
30,25:1
30,26:2
30,28:4
30,29:9
30,31:3
30,32:4
30,33:3
30,34:8
30,35:3
30,44:8
31,2:2
31,4:5
31,5:12
31,7:3
31,8:5
31,22:11
31,25:4
31,27:6
31,28:7
31,30:3
31,32:7
31,33:6
31,34:11
31,35:6
31,36:6
31,44:11
32,1:7
32,2:5
32,3:4
32,4:2
32,5:5
32,6:4
32,7:4
32,8:2
32,10:7
32,11:3
32,13:3
32,14:1
32,15:3
32,16:2
32,17:2
32,18:5
32,20:2
32,21:2
32,22:4
32,23:6
32,24:4
32,25:3
32,26:6
32,27:1
32,29:5
32,30:4
32,31:7
32,33:1
32,34:4
32,35:1
32,36:1
32,37:3
32,38:6
32,39:6
32,40:3
32,41:3
32,42:6
32,43:6
32,44:4
32,45:2
33,1:6
33,2:4
33,3:3
33,4:1
33,5:6
33,6:3
33,7:3
33,8:1
33,9:1
33,10:6
33,11:2
33,12:1
33,13:2
33,14:2
33,15:2
33,16:3
33,17:1
33,18:4
33,19:1
33,20:1
33,21:3
33,22:5
33,23:5
33,24:5
33,25:2
33,26:5
33,29:6
33,30:3
33,31:6
33,32:1
33,34:5
33,37:2
33,38:5
33,39:5
33,40:2
33,41:2
33,42:5
33,44:5
34,1:11
34,2:9
34,4:6
34,5:1
34,6:8
34,7:8
34,8:6
34,9:4
34,10:11
34,11:7
34,12:4
34,13:7
34,14:3
34,15:7
34,16:2
34,17:6
34,18:9
34,19:4
34,20:6
34,21:2
34,23:10
34,25:7
34,26:10
34,28:4
34,29:1
34,31:11
34,32:4
34,33:5
34,35:5
34,36:5
35,1:6
35,2:4
35,3:3
35,4:1
35,5:6
35,6:3
35,7:3
35,8:1
35,9:1
35,10:6
35,11:2
35,12:1
35,13:2
35,14:2
35,15:2
35,16:3
35,17:1
35,18:4
35,19:1
35,20:1
35,21:3
35,22:5
35,23:5
35,24:5
35,25:2
35,26:5
35,29:6
35,30:3
35,31:6
35,32:1
35,34:5
35,37:2
35,38:5
35,39:5
35,40:2
35,41:2
35,42:5
35,43:5
35,44:5
36,2:4
36,4:1
36,7:3
36,8:1
36,10:6
36,25:2
36,28:1
36,32:1
36,37:2
36,38:5
36,44:5
37,2:2
37,4:1
37,7:1
37,8:1
37,10:4
37,28:3
37,32:3
37,33:2
37,35:2
37,38:3
37,39:3
37,44:7
38,4:4
38,7:2
38,8:4
38,10:1
38,28:6
38,32:6
38,33:5
38,35:5
38,37:3
38,40:3
38,41:3
38,44:10
38,45:8
38,46:1
38,47:5
38,48:6
38,49:1
38,50:1
38,51:5
38,52:5
39,2:1
39,4:4
39,7:2
39,8:4
39,10:1
39,25:3
39,28:6
39,32:6
39,33:5
39,35:5
39,40:3
39,41:3
39,44:10
40,2:2
40,4:1
40,7:1
40,8:1
40,10:4
40,28:3
40,32:3
40,33:2
40,35:2
40,38:3
40,39:3
40,42:3
40,43:3
40,44:7
41,2:2
41,4:1
41,7:1
41,8:1
41,10:4
41,28:3
41,32:3
41,33:2
41,35:2
41,38:3
41,39:3
41,42:3
41,44:7
42,2:1
42,4:4
42,7:2
42,8:4
42,10:1
42,25:3
42,28:6
42,32:6
42,33:5
42,35:5
42,40:3
42,44:10
43,2:1
43,4:4
43,8:4
43,10:1
43,25:3
43,32:6
43,44:10
43,45:8
44,2:9
44,4:6
44,5:1
44,6:8
44,7:8
44,10:11
44,16:2
44,18:9
44,19:4
44,23:10
44,25:7
44,26:10
44,27:5
44,28:4
44,29:1
44,30:8
44,31:11
44,32:4
44,33:5
44,35:5
44,36:5
44,37:7
44,38:10
44,39:10
44,40:7
44,41:7
44,42:10
44,43:10
44,45:2
45,2:7
45,4:4
45,10:9
45,25:5
45,38:8
45,46:7
45,48:2
45,49:7
46,4:3
46,10:2
46,25:2
46,38:1
46,47:4
46,48:5
47,2:4
47,4:1
47,10:6
47,25:2
47,38:5
47,48:1
47,49:4
47,50:4
48,2:5
48,4:2
48,10:7
48,25:3
48,38:6
48,46:5
48,47:1
48,49:5
48,50:5
48,51:1
48,52:1
48,54:3
48,55:5
48,56:3
49,4:3
49,10:2
49,25:2
49,38:1
49,47:4
49,48:5
49,51:4
49,52:4
49,53:5
49,54:8
49,55:10
49,56:8
49,57:10
49,58:10
50,4:3
50,10:2
50,25:2
50,38:1
50,47:4
50,48:5
50,51:4
50,52:4
50,53:5
50,54:8
50,55:10
50,56:8
50,57:10
50,58:10
51,2:4
51,4:1
51,10:6
51,25:2
51,38:5
51,48:1
51,49:4
51,50:4
52,4:1
52,10:6
52,48:1
52,49:4
52,50:4
52,53:1
53,4:2
53,10:7
53,49:5
53,50:5
53,54:3
54,4:5
54,10:10
54,48:3
54,49:8
54,50:8
54,55:2
55,4:7
55,10:12
55,49:10
55,50:10
55,56:2
56,4:5
56,10:10
56,48:3
56,49:8
56,50:8
56,55:2
56,57:2
57,4:7
57,10:12
57,49:10
57,50:10
58,4:7
58,10:12

<setup times backward>
1,2:2
1,3:3
1,4:5
1,5:12
1,6:3
1,7:3
1,8:5
1,12:7
1,16:9
1,18:2
1,19:7
1,22:11
1,23:1
1,24:11
1,27:6
1,28:7
1,30:3
1,32:7
1,33:6
1,34:11
1,35:6
2,3:1
2,4:3
2,5:10
2,6:1
2,7:1
2,8:3
2,9:5
2,11:2
2,12:5
2,13:2
2,14:6
2,15:2
2,16:7
2,17:3
2,19:5
2,20:3
2,21:7
2,22:9
2,24:9
2,27:4
2,28:5
2,29:10
2,30:1
2,32:5
2,33:4
2,34:9
2,35:4
2,36:4
2,37:2
2,40:2
2,41:2
2,44:9
2,45:7
2,47:4
2,48:5
2,51:4
3,4:2
3,5:9
3,8:2
3,9:4
3,11:1
3,12:4
3,13:1
3,14:5
3,15:1
3,16:6
3,17:2
3,19:4
3,20:2
3,24:8
3,25:1
3,28:4
3,32:4
3,33:3
3,35:3
4,5:7
4,9:2
4,12:2
4,14:3
4,16:4
4,19:2
4,21:4
4,22:6
4,24:6
4,27:1
4,28:2
4,29:7
4,32:2
4,33:1
4,34:6
4,35:1
4,36:1
4,44:6
4,45:4
4,47:1
4,48:2
4,51:1
4,52:1
4,53:2
4,54:5
4,55:7
4,56:5
4,57:7
4,58:7
6,4:2
6,5:9
6,8:2
6,9:4
6,11:1
6,12:4
6,13:1
6,14:5
6,15:1
6,16:6
6,17:2
6,19:4
6,20:2
6,21:6
6,22:8
6,25:1
6,27:3
6,28:4
6,29:9
6,32:4
6,33:3
6,34:8
6,35:3
6,44:8
7,4:2
7,5:9
7,8:2
7,9:4
7,11:1
7,12:4
7,13:1
7,14:5
7,15:1
7,16:6
7,17:2
7,19:4
7,20:2
7,21:6
7,22:8
7,24:8
7,25:1
7,27:3
7,28:4
7,29:9
7,32:4
7,33:3
7,34:8
7,35:3
7,36:3
7,37:1
7,40:1
7,41:1
7,44:8
8,5:7
8,9:2
8,12:2
8,14:3
8,16:4
8,19:2
8,21:4
8,22:6
8,24:6
8,27:1
8,28:2
8,29:7
8,32:2
8,33:1
8,34:6
8,35:1
8,36:1
9,5:5
9,16:2
9,22:4
9,24:4
9,34:4
10,2:2
10,3:3
10,4:5
10,5:12
10,6:3
10,7:3
10,8:5
10,9:7
10,11:4
10,12:7
10,13:4
10,14:8
10,15:4
10,16:9
10,17:5
10,18:2
10,19:7
10,20:5
10,21:9
10,22:11
10,23:1
10,24:11
10,25:4
10,26:1
10,27:6
10,28:7
10,29:12
10,30:3
10,32:7
10,33:6
10,34:11
10,35:6
10,36:6
10,37:4
10,38:1
10,39:1
10,40:4
10,41:4
10,42:1
10,43:1
10,44:11
10,45:9
10,46:2
10,47:6
10,48:7
10,49:2
10,50:2
10,51:6
10,52:6
10,53:7
10,54:10
10,55:12
10,56:10
10,57:12
10,58:12
11,4:1
11,5:8
11,8:1
11,9:3
11,12:3
11,16:5
11,19:3
11,22:7
11,24:7
11,27:2
11,28:3
11,32:3
11,33:2
11,34:7
11,35:2
12,5:5
12,14:1
12,16:2
12,22:4
12,24:4
12,34:4
13,4:1
13,5:8
13,8:1
13,9:3
13,12:3
13,14:4
13,16:5
13,19:3
13,22:7
13,24:7
13,27:2
13,28:3
13,32:3
13,33:2
13,34:7
13,35:2
14,5:4
14,16:1
14,22:3
14,24:3
14,34:3
15,4:1
15,5:8
15,8:1
15,9:3
15,12:3
15,14:4
15,16:5
15,19:3
15,22:7
15,24:7
15,27:2
15,28:3
15,32:3
15,33:2
15,34:7
15,35:2
16,5:3
16,22:2
16,24:2
16,29:3
16,34:2
16,44:2
17,5:7
17,9:2
17,12:2
17,14:3
17,16:4
17,19:2
17,22:6
17,24:6
17,27:1
17,28:2
17,32:2
17,33:1
17,34:6
17,35:1
18,3:1
18,4:3
18,5:10
18,6:1
18,7:1
18,8:3
18,9:5
18,11:2
18,12:5
18,13:2
18,14:6
18,15:2
18,16:7
18,17:3
18,20:3
18,21:7
18,22:9
18,24:9
18,25:2
18,27:4
18,28:5
18,29:10
18,30:1
18,32:5
18,33:4
18,34:9
18,35:4
18,44:9
19,5:5
19,14:1
19,16:2
19,21:2
19,22:4
19,24:4
19,29:5
19,34:4
19,44:4
20,5:7
20,9:2
20,12:2
20,14:3
20,16:4
20,19:2
20,22:6
20,24:6
20,27:1
20,28:2
20,32:2
20,33:1
20,34:6
20,35:1
21,5:3
21,22:2
21,24:2
21,34:2
22,5:1
22,29:1
23,2:1
23,3:2
23,4:4
23,5:11
23,6:2
23,7:2
23,8:4
23,9:6
23,11:3
23,12:6
23,13:3
23,14:7
23,15:3
23,16:8
23,17:4
23,18:1
23,19:6
23,20:4
23,21:8
23,22:10
23,24:10
23,25:3
23,27:5
23,28:6
23,29:11
23,30:2
23,32:6
23,33:5
23,34:10
23,35:5
23,44:10
24,5:1
24,29:1
25,4:1
25,5:8
25,8:1
25,9:3
25,12:3
25,14:4
25,16:5
25,17:1
25,19:3
25,20:1
25,21:5
25,22:7
25,24:7
25,27:2
25,28:3
25,29:8
25,32:3
25,33:2
25,34:7
25,35:2
25,36:2
25,44:7
25,45:5
25,47:2
25,48:3
25,51:2
26,2:1
26,3:2
26,4:4
26,5:11
26,6:2
26,7:2
26,8:4
26,9:6
26,11:3
26,12:6
26,13:3
26,14:7
26,15:3
26,16:8
26,17:4
26,18:1
26,19:6
26,20:4
26,21:8
26,22:10
26,24:10
26,25:3
26,27:5
26,28:6
26,30:2
26,32:6
26,33:5
26,34:10
26,35:5
26,44:10
27,5:6
27,9:1
27,12:1
27,14:2
27,16:3
27,19:1
27,21:3
27,22:5
27,24:5
27,28:1
27,29:6
27,32:1
27,44:5
28,5:5
28,14:1
28,16:2
28,21:2
28,22:4
28,24:4
28,29:5
28,34:4
28,44:4
30,4:2
30,5:9
30,8:2
30,9:4
30,11:1
30,12:4
30,13:1
30,14:5
30,15:1
30,16:6
30,17:2
30,19:4
30,20:2
30,21:6
30,22:8
30,24:8
30,25:1
30,27:3
30,28:4
30,29:9
30,32:4
30,33:3
30,35:3
30,44:8
31,2:2
31,3:3
31,4:5
31,5:12
31,6:3
31,7:3
31,8:5
31,9:7
31,11:4
31,12:7
31,13:4
31,14:8
31,15:4
31,16:9
31,17:5
31,18:2
31,19:7
31,20:5
31,21:9
31,22:11
31,23:1
31,24:11
31,25:4
31,26:1
31,27:6
31,28:7
31,29:12
31,30:3
31,32:7
31,33:6
31,34:11
31,35:6
31,44:11
32,5:5
32,14:1
32,16:2
32,21:2
32,22:4
32,24:4
32,29:5
32,34:4
32,44:4
33,5:6
33,9:1
33,12:1
33,14:2
33,16:3
33,19:1
33,21:3
33,22:5
33,24:5
33,28:1
33,29:6
33,32:1
33,34:5
33,44:5
34,5:1
34,29:1
35,5:6
35,9:1
35,12:1
35,14:2
35,16:3
35,19:1
35,21:3
35,22:5
35,24:5
35,28:1
35,29:6
35,32:1
35,34:5
35,44:5
36,5:6
36,9:1
36,12:1
36,14:2
36,16:3
36,19:1
36,21:3
36,22:5
36,24:5
36,28:1
36,29:6
36,32:1
36,34:5
36,44:5
37,4:1
37,5:8
37,8:1
37,9:3
37,12:3
37,14:4
37,16:5
37,17:1
37,19:3
37,20:1
37,21:5
37,22:7
37,24:7
37,27:2
37,28:3
37,29:8
37,32:3
37,33:2
37,34:7
37,35:2
37,36:2
37,44:7
38,2:1
38,3:2
38,4:4
38,5:11
38,6:2
38,7:2
38,8:4
38,9:6
38,11:3
38,12:6
38,13:3
38,14:7
38,15:3
38,16:8
38,17:4
38,18:1
38,19:6
38,20:4
38,21:8
38,22:10
38,24:10
38,25:3
38,27:5
38,28:6
38,29:11
38,30:2
38,32:6
38,33:5
38,34:10
38,35:5
38,36:5
38,37:3
38,40:3
38,41:3
38,44:10
38,45:8
38,46:1
38,47:5
38,48:6
38,49:1
38,50:1
38,51:5
39,2:1
39,3:2
39,4:4
39,5:11
39,6:2
39,7:2
39,8:4
39,9:6
39,11:3
39,12:6
39,13:3
39,14:7
39,15:3
39,16:8
39,17:4
39,18:1
39,19:6
39,20:4
39,21:8
39,22:10
39,24:10
39,25:3
39,27:5
39,28:6
39,29:11
39,30:2
39,32:6
39,33:5
39,34:10
39,35:5
39,36:5
39,37:3
39,40:3
39,41:3
39,44:10
40,4:1
40,5:8
40,8:1
40,9:3
40,12:3
40,14:4
40,16:5
40,17:1
40,19:3
40,20:1
40,21:5
40,22:7
40,24:7
40,27:2
40,28:3
40,29:8
40,32:3
40,33:2
40,34:7
40,35:2
40,36:2
40,44:7
41,4:1
41,5:8
41,8:1
41,9:3
41,12:3
41,14:4
41,16:5
41,17:1
41,19:3
41,20:1
41,21:5
41,22:7
41,24:7
41,27:2
41,28:3
41,29:8
41,32:3
41,33:2
41,34:7
41,35:2
41,36:2
41,44:7
42,2:1
42,3:2
42,4:4
42,5:11
42,6:2
42,7:2
42,8:4
42,9:6
42,11:3
42,12:6
42,13:3
42,14:7
42,15:3
42,16:8
42,17:4
42,18:1
42,19:6
42,20:4
42,21:8
42,22:10
42,24:10
42,25:3
42,27:5
42,28:6
42,29:11
42,30:2
42,32:6
42,33:5
42,34:10
42,35:5
42,36:5
42,37:3
42,40:3
42,41:3
42,44:10
43,2:1
43,3:2
43,4:4
43,5:11
43,6:2
43,7:2
43,8:4
43,9:6
43,11:3
43,12:6
43,13:3
43,14:7
43,15:3
43,16:8
43,17:4
43,18:1
43,19:6
43,20:4
43,21:8
43,22:10
43,24:10
43,25:3
43,27:5
43,28:6
43,29:11
43,30:2
43,32:6
43,33:5
43,34:10
43,35:5
43,36:5
43,37:3
43,40:3
43,41:3
43,44:10
44,5:1
44,29:1
45,5:3
45,22:2
45,24:2
45,29:3
45,34:2
45,44:2
46,3:1
46,4:3
46,5:10
46,6:1
46,7:1
46,8:3
46,9:5
46,11:2
46,12:5
46,13:2
46,14:6
46,15:2
46,16:7
46,17:3
46,19:5
46,20:3
46,21:7
46,22:9
46,24:9
46,25:2
46,27:4
46,28:5
46,29:10
46,30:1
46,32:5
46,33:4
46,34:9
46,35:4
46,36:4
46,37:2
46,40:2
46,41:2
46,44:9
46,45:7
46,48:5
47,5:6
47,9:1
47,12:1
47,14:2
47,16:3
47,19:1
47,21:3
47,22:5
47,24:5
47,28:1
47,29:6
47,32:1
47,34:5
47,44:5
47,45:3
47,48:1
48,5:5
48,14:1
48,16:2
48,21:2
48,22:4
48,24:4
48,29:5
48,34:4
48,44:4
48,45:2
48,54:3
48,56:3
49,3:1
49,4:3
49,5:10
49,6:1
49,7:1
49,8:3
49,9:5
49,11:2
49,12:5
49,13:2
49,14:6
49,15:2
49,16:7
49,17:3
49,19:5
49,20:3
49,21:7
49,22:9
49,24:9
49,25:2
49,27:4
49,28:5
49,29:10
49,30:1
49,32:5
49,33:4
49,34:9
49,35:4
49,36:4
49,37:2
49,40:2
49,41:2
49,44:9
49,45:7
49,47:4
49,48:5
49,51:4
49,52:4
49,53:5
49,54:8
49,55:10
49,56:8
49,57:10
50,3:1
50,4:3
50,5:10
50,6:1
50,7:1
50,8:3
50,9:5
50,11:2
50,12:5
50,13:2
50,14:6
50,15:2
50,16:7
50,17:3
50,19:5
50,20:3
50,21:7
50,22:9
50,24:9
50,25:2
50,27:4
50,28:5
50,29:10
50,30:1
50,32:5
50,33:4
50,34:9
50,35:4
50,36:4
50,37:2
50,40:2
50,41:2
50,44:9
50,45:7
50,47:4
50,48:5
50,51:4
50,52:4
50,53:5
50,54:8
50,55:10
50,56:8
50,57:10
51,5:6
51,9:1
51,12:1
51,14:2
51,16:3
51,19:1
51,21:3
51,22:5
51,24:5
51,28:1
51,29:6
51,32:1
51,34:5
51,44:5
51,45:3
51,48:1
52,5:6
52,9:1
52,12:1
52,14:2
52,16:3
52,19:1
52,21:3
52,22:5
52,24:5
52,28:1
52,29:6
52,32:1
52,34:5
52,44:5
52,45:3
52,48:1
53,5:5
53,14:1
53,16:2
53,21:2
53,22:4
53,24:4
53,29:5
53,34:4
53,44:4
53,45:2
54,5:2
54,22:1
54,24:1
54,29:2
54,34:1
54,44:1
56,5:2
56,22:1
56,24:1
56,29:2
56,34:1
56,44:1
56,55:2

<end>

<optimal SALBP-1 value>
27


<rand seed>
467321153

